p wcnf 122 60 1
1 -1 8 
1 -2 9 
1 -3 10 
1 -4 11 
1 -5 12 
1 -6 13 
1 -7 14 
1 -15 1 
1 -16 1 
1 -17 1 
1 -18 1 
1 -19 1 
1 -20 1 
1 -21 1 
1 -15 22 
1 -15 23 
1 -15 24 
1 -15 25 
1 -15 26 
1 -15 27 
1 -16 23 
1 -16 24 
1 -16 25 
1 -16 26 
1 -16 27 
1 -16 28 
1 -17 24 
1 -17 25 
1 -17 26 
1 -17 27 
1 -17 28 
1 -17 29 
1 -18 25 
1 -18 26 
1 -18 27 
1 -18 28 
1 -18 29 
1 -18 30 
1 -19 26 
1 -19 27 
1 -19 28 
1 -19 29 
1 -19 30 
1 -19 31 
1 -20 27 
1 -20 28 
1 -20 29 
1 -20 30 
1 -20 31 
1 -20 32 
1 -21 28 
1 -21 29 
1 -21 30 
1 -21 31 
1 -21 32 
1 -21 33 
1 -34 1 
1 -35 1 
1 -36 1 
1 -37 1 
1 -38 1 
1 -39 1 
1 -40 1 
1 -34 41 
1 -34 42 
1 -34 43 
1 -34 44 
1 -34 45 
1 -34 46 
1 -34 47 
1 -35 42 
1 -35 43 
1 -35 44 
1 -35 45 
1 -35 46 
1 -35 47 
1 -35 48 
1 -36 43 
1 -36 44 
1 -36 45 
1 -36 46 
1 -36 47 
1 -36 48 
1 -36 49 
1 -37 44 
1 -37 45 
1 -37 46 
1 -37 47 
1 -37 48 
1 -37 49 
1 -37 50 
1 -38 45 
1 -38 46 
1 -38 47 
1 -38 48 
1 -38 49 
1 -38 50 
1 -38 51 
1 -39 46 
1 -39 47 
1 -39 48 
1 -39 49 
1 -39 50 
1 -39 51 
1 -39 52 
1 -40 47 
1 -40 48 
1 -40 49 
1 -40 50 
1 -40 51 
1 -40 52 
1 -40 53 
1 -54 15 
1 -55 15 
1 -54 56 
1 -54 57 
1 -55 57 
1 -55 58 
1 -59 34 54 
1 -59 60 
1 15 16 17 18 19 20 21 34 35 36 37 38 39 40 
1 15 16 17 18 19 20 21 34 35 36 37 38 39 40 54 55 
1 60 
